p cnf 386 460
13 10 -17 21 22 0
13 10 -17 21 -22 0
13 10 -17 -21 23 0
13 10 -17 -21 -23 0
-10 -19 16 24 25 0
-10 -19 16 24 -25 0
-10 -19 16 -24 26 0
-10 -19 16 -24 -26 0
-4 9 19 27 28 0
-4 9 19 27 -28 0
-4 9 19 -27 29 0
-4 9 19 -27 -29 0
9 -7 -18 30 31 0
9 -7 -18 30 -31 0
9 -7 -18 -30 32 0
9 -7 -18 -30 -32 0
18 6 12 33 34 0
18 6 12 33 -34 0
18 6 12 -33 35 0
18 6 12 -33 -35 0
-17 7 12 36 37 0
-17 7 12 36 -37 0
-17 7 12 -36 38 0
-17 7 12 -36 -38 0
16 -18 -14 39 40 0
16 -18 -14 39 -40 0
16 -18 -14 -39 41 0
16 -18 -14 -39 -41 0
18 17 -9 42 43 0
18 17 -9 42 -43 0
18 17 -9 -42 44 0
18 17 -9 -42 -44 0
7 15 6 45 46 0
7 15 6 45 -46 0
7 15 6 -45 47 0
7 15 6 -45 -47 0
-1 20 -8 48 49 0
-1 20 -8 48 -49 0
-1 20 -8 -48 50 0
-1 20 -8 -48 -50 0
16 5 4 51 52 0
16 5 4 51 -52 0
16 5 4 -51 53 0
16 5 4 -51 -53 0
8 18 4 54 55 0
8 18 4 54 -55 0
8 18 4 -54 56 0
8 18 4 -54 -56 0
18 5 20 57 58 0
18 5 20 57 -58 0
18 5 20 -57 59 0
18 5 20 -57 -59 0
4 -12 20 60 61 0
4 -12 20 60 -61 0
4 -12 20 -60 62 0
4 -12 20 -60 -62 0
-11 16 2 63 64 0
-11 16 2 63 -64 0
-11 16 2 -63 65 0
-11 16 2 -63 -65 0
-15 3 -14 66 67 0
-15 3 -14 66 -67 0
-15 3 -14 -66 68 0
-15 3 -14 -66 -68 0
4 -18 -14 69 70 0
4 -18 -14 69 -70 0
4 -18 -14 -69 71 0
4 -18 -14 -69 -71 0
10 17 5 72 73 0
10 17 5 72 -73 0
10 17 5 -72 74 0
10 17 5 -72 -74 0
-14 -6 -2 75 76 0
-14 -6 -2 75 -76 0
-14 -6 -2 -75 77 0
-14 -6 -2 -75 -77 0
-14 5 -12 78 79 0
-14 5 -12 78 -79 0
-14 5 -12 -78 80 0
-14 5 -12 -78 -80 0
-5 -17 -2 81 82 0
-5 -17 -2 81 -82 0
-5 -17 -2 -81 83 0
-5 -17 -2 -81 -83 0
13 19 9 84 85 0
13 19 9 84 -85 0
13 19 9 -84 86 0
13 19 9 -84 -86 0
-6 17 3 87 88 0
-6 17 3 87 -88 0
-6 17 3 -87 89 0
-6 17 3 -87 -89 0
20 -19 11 90 91 0
20 -19 11 90 -91 0
20 -19 11 -90 92 0
20 -19 11 -90 -92 0
18 5 -9 93 94 0
18 5 -9 93 -94 0
18 5 -9 -93 95 0
18 5 -9 -93 -95 0
9 5 8 96 97 0
9 5 8 96 -97 0
9 5 8 -96 98 0
9 5 8 -96 -98 0
2 15 -10 99 100 0
2 15 -10 99 -100 0
2 15 -10 -99 101 0
2 15 -10 -99 -101 0
-7 4 20 102 103 0
-7 4 20 102 -103 0
-7 4 20 -102 104 0
-7 4 20 -102 -104 0
-17 -7 -15 105 106 0
-17 -7 -15 105 -106 0
-17 -7 -15 -105 107 0
-17 -7 -15 -105 -107 0
15 3 -8 108 109 0
15 3 -8 108 -109 0
15 3 -8 -108 110 0
15 3 -8 -108 -110 0
13 8 7 111 112 0
13 8 7 111 -112 0
13 8 7 -111 113 0
13 8 7 -111 -113 0
-3 4 -10 114 115 0
-3 4 -10 114 -115 0
-3 4 -10 -114 116 0
-3 4 -10 -114 -116 0
9 10 1 117 118 0
9 10 1 117 -118 0
9 10 1 -117 119 0
9 10 1 -117 -119 0
13 4 -16 120 121 0
13 4 -16 120 -121 0
13 4 -16 -120 122 0
13 4 -16 -120 -122 0
-6 -16 -14 123 124 0
-6 -16 -14 123 -124 0
-6 -16 -14 -123 125 0
-6 -16 -14 -123 -125 0
-12 -6 19 126 127 0
-12 -6 19 126 -127 0
-12 -6 19 -126 128 0
-12 -6 19 -126 -128 0
17 -18 -10 129 130 0
17 -18 -10 129 -130 0
17 -18 -10 -129 131 0
17 -18 -10 -129 -131 0
-11 15 -7 132 133 0
-11 15 -7 132 -133 0
-11 15 -7 -132 134 0
-11 15 -7 -132 -134 0
1 -19 -6 135 136 0
1 -19 -6 135 -136 0
1 -19 -6 -135 137 0
1 -19 -6 -135 -137 0
-18 7 -4 138 139 0
-18 7 -4 138 -139 0
-18 7 -4 -138 140 0
-18 7 -4 -138 -140 0
9 10 14 141 142 0
9 10 14 141 -142 0
9 10 14 -141 143 0
9 10 14 -141 -143 0
20 1 -17 144 145 0
20 1 -17 144 -145 0
20 1 -17 -144 146 0
20 1 -17 -144 -146 0
-7 12 6 147 148 0
-7 12 6 147 -148 0
-7 12 6 -147 149 0
-7 12 6 -147 -149 0
-12 -10 -8 150 151 0
-12 -10 -8 150 -151 0
-12 -10 -8 -150 152 0
-12 -10 -8 -150 -152 0
7 8 6 153 154 0
7 8 6 153 -154 0
7 8 6 -153 155 0
7 8 6 -153 -155 0
-6 -14 20 156 157 0
-6 -14 20 156 -157 0
-6 -14 20 -156 158 0
-6 -14 20 -156 -158 0
-19 16 5 159 160 0
-19 16 5 159 -160 0
-19 16 5 -159 161 0
-19 16 5 -159 -161 0
-7 11 18 162 163 0
-7 11 18 162 -163 0
-7 11 18 -162 164 0
-7 11 18 -162 -164 0
1 14 16 165 166 0
1 14 16 165 -166 0
1 14 16 -165 167 0
1 14 16 -165 -167 0
-6 17 -15 168 169 0
-6 17 -15 168 -169 0
-6 17 -15 -168 170 0
-6 17 -15 -168 -170 0
1 12 13 171 172 0
1 12 13 171 -172 0
1 12 13 -171 173 0
1 12 13 -171 -173 0
5 9 4 174 175 0
5 9 4 174 -175 0
5 9 4 -174 176 0
5 9 4 -174 -176 0
-14 10 -17 177 178 0
-14 10 -17 177 -178 0
-14 10 -17 -177 179 0
-14 10 -17 -177 -179 0
-18 2 14 180 181 0
-18 2 14 180 -181 0
-18 2 14 -180 182 0
-18 2 14 -180 -182 0
-20 16 19 183 184 0
-20 16 19 183 -184 0
-20 16 19 -183 185 0
-20 16 19 -183 -185 0
13 8 17 186 187 0
13 8 17 186 -187 0
13 8 17 -186 188 0
13 8 17 -186 -188 0
-14 13 -15 189 190 0
-14 13 -15 189 -190 0
-14 13 -15 -189 191 0
-14 13 -15 -189 -191 0
-4 15 8 192 193 0
-4 15 8 192 -193 0
-4 15 8 -192 194 0
-4 15 8 -192 -194 0
-20 -4 12 195 196 0
-20 -4 12 195 -196 0
-20 -4 12 -195 197 0
-20 -4 12 -195 -197 0
16 -15 10 198 199 0
16 -15 10 198 -199 0
16 -15 10 -198 200 0
16 -15 10 -198 -200 0
-10 16 9 201 202 0
-10 16 9 201 -202 0
-10 16 9 -201 203 0
-10 16 9 -201 -203 0
-11 -17 18 204 205 0
-11 -17 18 204 -205 0
-11 -17 18 -204 206 0
-11 -17 18 -204 -206 0
-6 -3 2 207 208 0
-6 -3 2 207 -208 0
-6 -3 2 -207 209 0
-6 -3 2 -207 -209 0
-15 3 14 210 211 0
-15 3 14 210 -211 0
-15 3 14 -210 212 0
-15 3 14 -210 -212 0
-7 20 3 213 214 0
-7 20 3 213 -214 0
-7 20 3 -213 215 0
-7 20 3 -213 -215 0
20 12 -18 216 217 0
20 12 -18 216 -217 0
20 12 -18 -216 218 0
20 12 -18 -216 -218 0
9 -20 16 219 220 0
9 -20 16 219 -220 0
9 -20 16 -219 221 0
9 -20 16 -219 -221 0
8 16 12 222 223 0
8 16 12 222 -223 0
8 16 12 -222 224 0
8 16 12 -222 -224 0
10 -1 7 225 226 0
10 -1 7 225 -226 0
10 -1 7 -225 227 0
10 -1 7 -225 -227 0
-11 -18 -9 228 229 0
-11 -18 -9 228 -229 0
-11 -18 -9 -228 230 0
-11 -18 -9 -228 -230 0
-15 13 -2 231 232 0
-15 13 -2 231 -232 0
-15 13 -2 -231 233 0
-15 13 -2 -231 -233 0
12 -9 11 234 235 0
12 -9 11 234 -235 0
12 -9 11 -234 236 0
12 -9 11 -234 -236 0
17 -4 16 237 238 0
17 -4 16 237 -238 0
17 -4 16 -237 239 0
17 -4 16 -237 -239 0
-12 2 -3 240 241 0
-12 2 -3 240 -241 0
-12 2 -3 -240 242 0
-12 2 -3 -240 -242 0
-7 16 12 243 244 0
-7 16 12 243 -244 0
-7 16 12 -243 245 0
-7 16 12 -243 -245 0
7 -4 -19 246 247 0
7 -4 -19 246 -247 0
7 -4 -19 -246 248 0
7 -4 -19 -246 -248 0
-20 7 10 249 250 0
-20 7 10 249 -250 0
-20 7 10 -249 251 0
-20 7 10 -249 -251 0
-10 -5 6 252 253 0
-10 -5 6 252 -253 0
-10 -5 6 -252 254 0
-10 -5 6 -252 -254 0
9 19 11 255 256 0
9 19 11 255 -256 0
9 19 11 -255 257 0
9 19 11 -255 -257 0
14 19 17 258 259 0
14 19 17 258 -259 0
14 19 17 -258 260 0
14 19 17 -258 -260 0
16 12 -20 261 262 0
16 12 -20 261 -262 0
16 12 -20 -261 263 0
16 12 -20 -261 -263 0
-3 14 5 264 265 0
-3 14 5 264 -265 0
-3 14 5 -264 266 0
-3 14 5 -264 -266 0
3 -17 12 267 268 0
3 -17 12 267 -268 0
3 -17 12 -267 269 0
3 -17 12 -267 -269 0
16 3 -8 270 271 0
16 3 -8 270 -271 0
16 3 -8 -270 272 0
16 3 -8 -270 -272 0
11 -3 -10 273 274 0
11 -3 -10 273 -274 0
11 -3 -10 -273 275 0
11 -3 -10 -273 -275 0
-9 7 -10 276 277 0
-9 7 -10 276 -277 0
-9 7 -10 -276 278 0
-9 7 -10 -276 -278 0
-9 -12 6 279 280 0
-9 -12 6 279 -280 0
-9 -12 6 -279 281 0
-9 -12 6 -279 -281 0
12 -10 -15 282 283 0
12 -10 -15 282 -283 0
12 -10 -15 -282 284 0
12 -10 -15 -282 -284 0
-9 -6 17 285 286 0
-9 -6 17 285 -286 0
-9 -6 17 -285 287 0
-9 -6 17 -285 -287 0
-20 6 15 288 289 0
-20 6 15 288 -289 0
-20 6 15 -288 290 0
-20 6 15 -288 -290 0
17 -12 -7 291 292 0
17 -12 -7 291 -292 0
17 -12 -7 -291 293 0
17 -12 -7 -291 -293 0
294 295 297 301 309 0
294 295 297 301 -309 0
294 295 297 -301 310 0
294 295 297 -301 -310 0
294 295 -297 302 311 0
294 295 -297 302 -311 0
294 295 -297 -302 312 0
294 295 -297 -302 -312 0
294 -295 298 303 313 0
294 -295 298 303 -313 0
294 -295 298 -303 314 0
294 -295 298 -303 -314 0
294 -295 -298 304 315 0
294 -295 -298 304 -315 0
294 -295 -298 -304 316 0
294 -295 -298 -304 -316 0
-294 296 299 305 317 0
-294 296 299 305 -317 0
-294 296 299 -305 318 0
-294 296 299 -305 -318 0
-294 296 -299 306 319 0
-294 296 -299 306 -319 0
-294 296 -299 -306 320 0
-294 296 -299 -306 -320 0
-294 -296 300 307 321 0
-294 -296 300 307 -321 0
-294 -296 300 -307 322 0
-294 -296 300 -307 -322 0
-294 -296 -300 308 323 0
-294 -296 -300 308 -323 0
-294 -296 -300 -308 324 0
-294 -296 -300 -308 -324 0
325 326 328 332 340 0
325 326 328 332 -340 0
325 326 328 -332 341 0
325 326 328 -332 -341 0
325 326 -328 333 342 0
325 326 -328 333 -342 0
325 326 -328 -333 343 0
325 326 -328 -333 -343 0
325 -326 329 334 344 0
325 -326 329 334 -344 0
325 -326 329 -334 345 0
325 -326 329 -334 -345 0
325 -326 -329 335 346 0
325 -326 -329 335 -346 0
325 -326 -329 -335 347 0
325 -326 -329 -335 -347 0
-325 327 330 336 348 0
-325 327 330 336 -348 0
-325 327 330 -336 349 0
-325 327 330 -336 -349 0
-325 327 -330 337 350 0
-325 327 -330 337 -350 0
-325 327 -330 -337 351 0
-325 327 -330 -337 -351 0
-325 -327 331 338 352 0
-325 -327 331 338 -352 0
-325 -327 331 -338 353 0
-325 -327 331 -338 -353 0
-325 -327 -331 339 354 0
-325 -327 -331 339 -354 0
-325 -327 -331 -339 355 0
-325 -327 -331 -339 -355 0
356 357 359 363 371 0
356 357 359 363 -371 0
356 357 359 -363 372 0
356 357 359 -363 -372 0
356 357 -359 364 373 0
356 357 -359 364 -373 0
356 357 -359 -364 374 0
356 357 -359 -364 -374 0
356 -357 360 365 375 0
356 -357 360 365 -375 0
356 -357 360 -365 376 0
356 -357 360 -365 -376 0
356 -357 -360 366 377 0
356 -357 -360 366 -377 0
356 -357 -360 -366 378 0
356 -357 -360 -366 -378 0
-356 358 361 367 379 0
-356 358 361 367 -379 0
-356 358 361 -367 380 0
-356 358 361 -367 -380 0
-356 358 -361 368 381 0
-356 358 -361 368 -381 0
-356 358 -361 -368 382 0
-356 358 -361 -368 -382 0
-356 -358 362 369 383 0
-356 -358 362 369 -383 0
-356 -358 362 -369 384 0
-356 -358 362 -369 -384 0
-356 -358 -362 370 385 0
-356 -358 -362 370 -385 0
-356 -358 -362 -370 386 0
-356 -358 -362 -370 -386 0

